data/lp_files/q3/87_5.lp
\ Model foo
\ LP format - for model browsing. Use MPS format to capture full model detail.
Minimize
  z
Subject To
 allocateEach[1]: x[1,1] + x[2,1] + x[3,1] + x[4,1] + x[5,1] = 1
 allocateEach[2]: x[1,2] + x[2,2] + x[3,2] + x[4,2] + x[5,2] = 1
 allocateEach[3]: x[1,3] + x[2,3] + x[3,3] + x[4,3] + x[5,3] = 1
 allocateEach[4]: x[1,4] + x[2,4] + x[3,4] + x[4,4] + x[5,4] = 1
 allocateEach[5]: x[1,5] + x[2,5] + x[3,5] + x[4,5] + x[5,5] = 1
 allocateEach[6]: x[1,6] + x[2,6] + x[3,6] + x[4,6] + x[5,6] = 1
 allocateEach[7]: x[1,7] + x[2,7] + x[3,7] + x[4,7] + x[5,7] = 1
 allocateAllCash: cashProportion[1] + cashProportion[2] + cashProportion[3]
   + cashProportion[4] + cashProportion[5] = 1
 findWorstP[1,2]: z + 0.088519075860848 cashProportion[1]
   - 0.088519075860848 cashProportion[2] + 0.2082558791419551 x[1,1]
   + 0.2890147826856688 x[1,2] + 0.00778967867575462 x[1,3]
   + 0.0632911392405063 x[1,4] + 0.1010002655572276 x[1,5]
   + 0.0642058363577351 x[1,6] + 0.1779233424803045 x[1,7]
   - 0.2082558791419551 x[2,1] - 0.2890147826856688 x[2,2]
   - 0.00778967867575462 x[2,3] - 0.0632911392405063 x[2,4]
   - 0.1010002655572276 x[2,5] - 0.0642058363577351 x[2,6]
   - 0.1779233424803045 x[2,7] >= 0
 findWorstP[1,3]: z + 0.088519075860848 cashProportion[1]
   - 0.088519075860848 cashProportion[3] + 0.2082558791419551 x[1,1]
   + 0.2890147826856688 x[1,2] + 0.00778967867575462 x[1,3]
   + 0.0632911392405063 x[1,4] + 0.1010002655572276 x[1,5]
   + 0.0642058363577351 x[1,6] + 0.1779233424803045 x[1,7]
   - 0.2082558791419551 x[3,1] - 0.2890147826856688 x[3,2]
   - 0.00778967867575462 x[3,3] - 0.0632911392405063 x[3,4]
   - 0.1010002655572276 x[3,5] - 0.0642058363577351 x[3,6]
   - 0.1779233424803045 x[3,7] >= 0
 findWorstP[1,4]: z + 0.088519075860848 cashProportion[1]
   - 0.088519075860848 cashProportion[4] + 0.2082558791419551 x[1,1]
   + 0.2890147826856688 x[1,2] + 0.00778967867575462 x[1,3]
   + 0.0632911392405063 x[1,4] + 0.1010002655572276 x[1,5]
   + 0.0642058363577351 x[1,6] + 0.1779233424803045 x[1,7]
   - 0.2082558791419551 x[4,1] - 0.2890147826856688 x[4,2]
   - 0.00778967867575462 x[4,3] - 0.0632911392405063 x[4,4]
   - 0.1010002655572276 x[4,5] - 0.0642058363577351 x[4,6]
   - 0.1779233424803045 x[4,7] >= 0
 findWorstP[1,5]: z + 0.088519075860848 cashProportion[1]
   - 0.088519075860848 cashProportion[5] + 0.2082558791419551 x[1,1]
   + 0.2890147826856688 x[1,2] + 0.00778967867575462 x[1,3]
   + 0.0632911392405063 x[1,4] + 0.1010002655572276 x[1,5]
   + 0.0642058363577351 x[1,6] + 0.1779233424803045 x[1,7]
   - 0.2082558791419551 x[5,1] - 0.2890147826856688 x[5,2]
   - 0.00778967867575462 x[5,3] - 0.0632911392405063 x[5,4]
   - 0.1010002655572276 x[5,5] - 0.0642058363577351 x[5,6]
   - 0.1779233424803045 x[5,7] >= 0
 findWorstP[2,1]: z - 0.0696734637001254 cashProportion[1]
   + 0.0696734637001254 cashProportion[2] - 0.1870732500348367 x[1,1]
   - 0.2095313298341771 x[1,2] - 0.0157926517720284 x[1,3]
   - 0.1957127595336523 x[1,4] - 0.1251799897812253 x[1,5]
   - 0.1693529657671048 x[1,6] - 0.0276835895768498 x[1,7]
   + 0.1870732500348367 x[2,1] + 0.2095313298341771 x[2,2]
   + 0.0157926517720284 x[2,3] + 0.1957127595336523 x[2,4]
   + 0.1251799897812253 x[2,5] + 0.1693529657671048 x[2,6]
   + 0.0276835895768498 x[2,7] >= 0
 findWorstP[2,3]: z + 0.0696734637001254 cashProportion[2]
   - 0.0696734637001254 cashProportion[3] + 0.1870732500348367 x[2,1]
   + 0.2095313298341771 x[2,2] + 0.0157926517720284 x[2,3]
   + 0.1957127595336523 x[2,4] + 0.1251799897812253 x[2,5]
   + 0.1693529657671048 x[2,6] + 0.0276835895768498 x[2,7]
   - 0.1870732500348367 x[3,1] - 0.2095313298341771 x[3,2]
   - 0.0157926517720284 x[3,3] - 0.1957127595336523 x[3,4]
   - 0.1251799897812253 x[3,5] - 0.1693529657671048 x[3,6]
   - 0.0276835895768498 x[3,7] >= 0
 findWorstP[2,4]: z + 0.0696734637001254 cashProportion[2]
   - 0.0696734637001254 cashProportion[4] + 0.1870732500348367 x[2,1]
   + 0.2095313298341771 x[2,2] + 0.0157926517720284 x[2,3]
   + 0.1957127595336523 x[2,4] + 0.1251799897812253 x[2,5]
   + 0.1693529657671048 x[2,6] + 0.0276835895768498 x[2,7]
   - 0.1870732500348367 x[4,1] - 0.2095313298341771 x[4,2]
   - 0.0157926517720284 x[4,3] - 0.1957127595336523 x[4,4]
   - 0.1251799897812253 x[4,5] - 0.1693529657671048 x[4,6]
   - 0.0276835895768498 x[4,7] >= 0
 findWorstP[2,5]: z + 0.0696734637001254 cashProportion[2]
   - 0.0696734637001254 cashProportion[5] + 0.1870732500348367 x[2,1]
   + 0.2095313298341771 x[2,2] + 0.0157926517720284 x[2,3]
   + 0.1957127595336523 x[2,4] + 0.1251799897812253 x[2,5]
   + 0.1693529657671048 x[2,6] + 0.0276835895768498 x[2,7]
   - 0.1870732500348367 x[5,1] - 0.2095313298341771 x[5,2]
   - 0.0157926517720284 x[5,3] - 0.1957127595336523 x[5,4]
   - 0.1251799897812253 x[5,5] - 0.1693529657671048 x[5,6]
   - 0.0276835895768498 x[5,7] >= 0
 findWorstP[3,1]: z - 0.079641084180626 cashProportion[1]
   + 0.079641084180626 cashProportion[3] - 0.0482890440415196 x[1,1]
   - 0.1541054978895113 x[1,2] - 0.2608510977196103 x[1,3]
   - 0.0353606413761979 x[1,4] - 0.1340890387321139 x[1,5]
   - 0.2641960232551966 x[1,6] - 0.0234675728052245 x[1,7]
   + 0.0482890440415196 x[3,1] + 0.1541054978895113 x[3,2]
   + 0.2608510977196103 x[3,3] + 0.0353606413761979 x[3,4]
   + 0.1340890387321139 x[3,5] + 0.2641960232551966 x[3,6]
   + 0.0234675728052245 x[3,7] >= 0
 findWorstP[3,2]: z - 0.079641084180626 cashProportion[2]
   + 0.079641084180626 cashProportion[3] - 0.0482890440415196 x[2,1]
   - 0.1541054978895113 x[2,2] - 0.2608510977196103 x[2,3]
   - 0.0353606413761979 x[2,4] - 0.1340890387321139 x[2,5]
   - 0.2641960232551966 x[2,6] - 0.0234675728052245 x[2,7]
   + 0.0482890440415196 x[3,1] + 0.1541054978895113 x[3,2]
   + 0.2608510977196103 x[3,3] + 0.0353606413761979 x[3,4]
   + 0.1340890387321139 x[3,5] + 0.2641960232551966 x[3,6]
   + 0.0234675728052245 x[3,7] >= 0
 findWorstP[3,4]: z + 0.079641084180626 cashProportion[3]
   - 0.079641084180626 cashProportion[4] + 0.0482890440415196 x[3,1]
   + 0.1541054978895113 x[3,2] + 0.2608510977196103 x[3,3]
   + 0.0353606413761979 x[3,4] + 0.1340890387321139 x[3,5]
   + 0.2641960232551966 x[3,6] + 0.0234675728052245 x[3,7]
   - 0.0482890440415196 x[4,1] - 0.1541054978895113 x[4,2]
   - 0.2608510977196103 x[4,3] - 0.0353606413761979 x[4,4]
   - 0.1340890387321139 x[4,5] - 0.2641960232551966 x[4,6]
   - 0.0234675728052245 x[4,7] >= 0
 findWorstP[3,5]: z + 0.079641084180626 cashProportion[3]
   - 0.079641084180626 cashProportion[5] + 0.0482890440415196 x[3,1]
   + 0.1541054978895113 x[3,2] + 0.2608510977196103 x[3,3]
   + 0.0353606413761979 x[3,4] + 0.1340890387321139 x[3,5]
   + 0.2641960232551966 x[3,6] + 0.0234675728052245 x[3,7]
   - 0.0482890440415196 x[5,1] - 0.1541054978895113 x[5,2]
   - 0.2608510977196103 x[5,3] - 0.0353606413761979 x[5,4]
   - 0.1340890387321139 x[5,5] - 0.2641960232551966 x[5,6]
   - 0.0234675728052245 x[5,7] >= 0
 findWorstP[4,1]: z - 0.0586602010089555 cashProportion[1]
   + 0.0586602010089555 cashProportion[4] - 0.1955340033631849 x[1,1]
   - 0.1654022134449181 x[1,2] - 0.1652653396425638 x[1,3]
   - 0.0302295569199484 x[1,4] - 0.1748856126080326 x[1,5]
   - 0.1015212545461656 x[1,6] - 0.1085018184662313 x[1,7]
   + 0.1955340033631849 x[4,1] + 0.1654022134449181 x[4,2]
   + 0.1652653396425638 x[4,3] + 0.0302295569199484 x[4,4]
   + 0.1748856126080326 x[4,5] + 0.1015212545461656 x[4,6]
   + 0.1085018184662313 x[4,7] >= 0
 findWorstP[4,2]: z - 0.0586602010089555 cashProportion[2]
   + 0.0586602010089555 cashProportion[4] - 0.1955340033631849 x[2,1]
   - 0.1654022134449181 x[2,2] - 0.1652653396425638 x[2,3]
   - 0.0302295569199484 x[2,4] - 0.1748856126080326 x[2,5]
   - 0.1015212545461656 x[2,6] - 0.1085018184662313 x[2,7]
   + 0.1955340033631849 x[4,1] + 0.1654022134449181 x[4,2]
   + 0.1652653396425638 x[4,3] + 0.0302295569199484 x[4,4]
   + 0.1748856126080326 x[4,5] + 0.1015212545461656 x[4,6]
   + 0.1085018184662313 x[4,7] >= 0
 findWorstP[4,3]: z - 0.0586602010089555 cashProportion[3]
   + 0.0586602010089555 cashProportion[4] - 0.1955340033631849 x[3,1]
   - 0.1654022134449181 x[3,2] - 0.1652653396425638 x[3,3]
   - 0.0302295569199484 x[3,4] - 0.1748856126080326 x[3,5]
   - 0.1015212545461656 x[3,6] - 0.1085018184662313 x[3,7]
   + 0.1955340033631849 x[4,1] + 0.1654022134449181 x[4,2]
   + 0.1652653396425638 x[4,3] + 0.0302295569199484 x[4,4]
   + 0.1748856126080326 x[4,5] + 0.1015212545461656 x[4,6]
   + 0.1085018184662313 x[4,7] >= 0
 findWorstP[4,5]: z + 0.0586602010089555 cashProportion[4]
   - 0.0586602010089555 cashProportion[5] + 0.1955340033631849 x[4,1]
   + 0.1654022134449181 x[4,2] + 0.1652653396425638 x[4,3]
   + 0.0302295569199484 x[4,4] + 0.1748856126080326 x[4,5]
   + 0.1015212545461656 x[4,6] + 0.1085018184662313 x[4,7]
   - 0.1955340033631849 x[5,1] - 0.1654022134449181 x[5,2]
   - 0.1652653396425638 x[5,3] - 0.0302295569199484 x[5,4]
   - 0.1748856126080326 x[5,5] - 0.1015212545461656 x[5,6]
   - 0.1085018184662313 x[5,7] >= 0
 findWorstP[5,1]: z - 0.0860930953337542 cashProportion[1]
   + 0.0860930953337542 cashProportion[5] - 0.1402743499971302 x[1,1]
   - 0.0028123744475693 x[1,2] - 0.0521724157722551 x[1,3]
   - 0.2684095735522011 x[1,4] - 0.1510359869138495 x[1,5]
   - 0.1373758824542272 x[1,6] - 0.1618263215290134 x[1,7]
   + 0.1402743499971302 x[5,1] + 0.0028123744475693 x[5,2]
   + 0.0521724157722551 x[5,3] + 0.2684095735522011 x[5,4]
   + 0.1510359869138495 x[5,5] + 0.1373758824542272 x[5,6]
   + 0.1618263215290134 x[5,7] >= 0
 findWorstP[5,2]: z - 0.0860930953337542 cashProportion[2]
   + 0.0860930953337542 cashProportion[5] - 0.1402743499971302 x[2,1]
   - 0.0028123744475693 x[2,2] - 0.0521724157722551 x[2,3]
   - 0.2684095735522011 x[2,4] - 0.1510359869138495 x[2,5]
   - 0.1373758824542272 x[2,6] - 0.1618263215290134 x[2,7]
   + 0.1402743499971302 x[5,1] + 0.0028123744475693 x[5,2]
   + 0.0521724157722551 x[5,3] + 0.2684095735522011 x[5,4]
   + 0.1510359869138495 x[5,5] + 0.1373758824542272 x[5,6]
   + 0.1618263215290134 x[5,7] >= 0
 findWorstP[5,3]: z - 0.0860930953337542 cashProportion[3]
   + 0.0860930953337542 cashProportion[5] - 0.1402743499971302 x[3,1]
   - 0.0028123744475693 x[3,2] - 0.0521724157722551 x[3,3]
   - 0.2684095735522011 x[3,4] - 0.1510359869138495 x[3,5]
   - 0.1373758824542272 x[3,6] - 0.1618263215290134 x[3,7]
   + 0.1402743499971302 x[5,1] + 0.0028123744475693 x[5,2]
   + 0.0521724157722551 x[5,3] + 0.2684095735522011 x[5,4]
   + 0.1510359869138495 x[5,5] + 0.1373758824542272 x[5,6]
   + 0.1618263215290134 x[5,7] >= 0
 findWorstP[5,4]: z - 0.0860930953337542 cashProportion[4]
   + 0.0860930953337542 cashProportion[5] - 0.1402743499971302 x[4,1]
   - 0.0028123744475693 x[4,2] - 0.0521724157722551 x[4,3]
   - 0.2684095735522011 x[4,4] - 0.1510359869138495 x[4,5]
   - 0.1373758824542272 x[4,6] - 0.1618263215290134 x[4,7]
   + 0.1402743499971302 x[5,1] + 0.0028123744475693 x[5,2]
   + 0.0521724157722551 x[5,3] + 0.2684095735522011 x[5,4]
   + 0.1510359869138495 x[5,5] + 0.1373758824542272 x[5,6]
   + 0.1618263215290134 x[5,7] >= 0
Bounds
 z <= 1
 -infinity <= cashProportion[1] <= 1
 -infinity <= cashProportion[2] <= 1
 -infinity <= cashProportion[3] <= 1
 -infinity <= cashProportion[4] <= 1
 -infinity <= cashProportion[5] <= 1
Binaries
 x[1,1] x[1,2] x[1,3] x[1,4] x[1,5] x[1,6] x[1,7] x[2,1] x[2,2] x[2,3]
 x[2,4] x[2,5] x[2,6] x[2,7] x[3,1] x[3,2] x[3,3] x[3,4] x[3,5] x[3,6]
 x[3,7] x[4,1] x[4,2] x[4,3] x[4,4] x[4,5] x[4,6] x[4,7] x[5,1] x[5,2]
 x[5,3] x[5,4] x[5,5] x[5,6] x[5,7]
End
