data/mps_files/q3/87_5.mps
NAME foo
ROWS
 N  OBJ
 E  allocateEach[1]
 E  allocateEach[2]
 E  allocateEach[3]
 E  allocateEach[4]
 E  allocateEach[5]
 E  allocateEach[6]
 E  allocateEach[7]
 E  allocateAllCash
 G  findWorstP[1,2]
 G  findWorstP[1,3]
 G  findWorstP[1,4]
 G  findWorstP[1,5]
 G  findWorstP[2,1]
 G  findWorstP[2,3]
 G  findWorstP[2,4]
 G  findWorstP[2,5]
 G  findWorstP[3,1]
 G  findWorstP[3,2]
 G  findWorstP[3,4]
 G  findWorstP[3,5]
 G  findWorstP[4,1]
 G  findWorstP[4,2]
 G  findWorstP[4,3]
 G  findWorstP[4,5]
 G  findWorstP[5,1]
 G  findWorstP[5,2]
 G  findWorstP[5,3]
 G  findWorstP[5,4]
COLUMNS
    z         OBJ       1
    z         findWorstP[1,2]  1
    z         findWorstP[1,3]  1
    z         findWorstP[1,4]  1
    z         findWorstP[1,5]  1
    z         findWorstP[2,1]  1
    z         findWorstP[2,3]  1
    z         findWorstP[2,4]  1
    z         findWorstP[2,5]  1
    z         findWorstP[3,1]  1
    z         findWorstP[3,2]  1
    z         findWorstP[3,4]  1
    z         findWorstP[3,5]  1
    z         findWorstP[4,1]  1
    z         findWorstP[4,2]  1
    z         findWorstP[4,3]  1
    z         findWorstP[4,5]  1
    z         findWorstP[5,1]  1
    z         findWorstP[5,2]  1
    z         findWorstP[5,3]  1
    z         findWorstP[5,4]  1
    cashProportion[1]  allocateAllCash  1
    cashProportion[1]  findWorstP[1,2]  0.088519075860848
    cashProportion[1]  findWorstP[1,3]  0.088519075860848
    cashProportion[1]  findWorstP[1,4]  0.088519075860848
    cashProportion[1]  findWorstP[1,5]  0.088519075860848
    cashProportion[1]  findWorstP[2,1]  -6.9673463700125407e-02
    cashProportion[1]  findWorstP[3,1]  -7.9641084180625973e-02
    cashProportion[1]  findWorstP[4,1]  -5.8660201008955463e-02
    cashProportion[1]  findWorstP[5,1]  -8.6093095333754241e-02
    cashProportion[2]  allocateAllCash  1
    cashProportion[2]  findWorstP[1,2]  -0.088519075860848
    cashProportion[2]  findWorstP[2,1]  6.9673463700125407e-02
    cashProportion[2]  findWorstP[2,3]  6.9673463700125407e-02
    cashProportion[2]  findWorstP[2,4]  6.9673463700125407e-02
    cashProportion[2]  findWorstP[2,5]  6.9673463700125407e-02
    cashProportion[2]  findWorstP[3,2]  -7.9641084180625973e-02
    cashProportion[2]  findWorstP[4,2]  -5.8660201008955463e-02
    cashProportion[2]  findWorstP[5,2]  -8.6093095333754241e-02
    cashProportion[3]  allocateAllCash  1
    cashProportion[3]  findWorstP[1,3]  -0.088519075860848
    cashProportion[3]  findWorstP[2,3]  -6.9673463700125407e-02
    cashProportion[3]  findWorstP[3,1]  7.9641084180625973e-02
    cashProportion[3]  findWorstP[3,2]  7.9641084180625973e-02
    cashProportion[3]  findWorstP[3,4]  7.9641084180625973e-02
    cashProportion[3]  findWorstP[3,5]  7.9641084180625973e-02
    cashProportion[3]  findWorstP[4,3]  -5.8660201008955463e-02
    cashProportion[3]  findWorstP[5,3]  -8.6093095333754241e-02
    cashProportion[4]  allocateAllCash  1
    cashProportion[4]  findWorstP[1,4]  -0.088519075860848
    cashProportion[4]  findWorstP[2,4]  -6.9673463700125407e-02
    cashProportion[4]  findWorstP[3,4]  -7.9641084180625973e-02
    cashProportion[4]  findWorstP[4,1]  5.8660201008955463e-02
    cashProportion[4]  findWorstP[4,2]  5.8660201008955463e-02
    cashProportion[4]  findWorstP[4,3]  5.8660201008955463e-02
    cashProportion[4]  findWorstP[4,5]  5.8660201008955463e-02
    cashProportion[4]  findWorstP[5,4]  -8.6093095333754241e-02
    cashProportion[5]  allocateAllCash  1
    cashProportion[5]  findWorstP[1,5]  -0.088519075860848
    cashProportion[5]  findWorstP[2,5]  -6.9673463700125407e-02
    cashProportion[5]  findWorstP[3,5]  -7.9641084180625973e-02
    cashProportion[5]  findWorstP[4,5]  -5.8660201008955463e-02
    cashProportion[5]  findWorstP[5,1]  8.6093095333754241e-02
    cashProportion[5]  findWorstP[5,2]  8.6093095333754241e-02
    cashProportion[5]  findWorstP[5,3]  8.6093095333754241e-02
    cashProportion[5]  findWorstP[5,4]  8.6093095333754241e-02
    MARKER    'MARKER'                 'INTORG'
    x[1,1]    allocateEach[1]  1
    x[1,1]    findWorstP[1,2]  2.0825587914195506e-01
    x[1,1]    findWorstP[1,3]  2.0825587914195506e-01
    x[1,1]    findWorstP[1,4]  2.0825587914195506e-01
    x[1,1]    findWorstP[1,5]  2.0825587914195506e-01
    x[1,1]    findWorstP[2,1]  -1.8707325003483671e-01
    x[1,1]    findWorstP[3,1]  -4.8289044041519555e-02
    x[1,1]    findWorstP[4,1]  -1.9553400336318488e-01
    x[1,1]    findWorstP[5,1]  -1.4027434999713023e-01
    x[1,2]    allocateEach[2]  1
    x[1,2]    findWorstP[1,2]  2.8901478268566877e-01
    x[1,2]    findWorstP[1,3]  2.8901478268566877e-01
    x[1,2]    findWorstP[1,4]  2.8901478268566877e-01
    x[1,2]    findWorstP[1,5]  2.8901478268566877e-01
    x[1,2]    findWorstP[2,1]  -2.0953132983417713e-01
    x[1,2]    findWorstP[3,1]  -1.5410549788951128e-01
    x[1,2]    findWorstP[4,1]  -1.6540221344491809e-01
    x[1,2]    findWorstP[5,1]  -2.8123744475693048e-03
    x[1,3]    allocateEach[3]  1
    x[1,3]    findWorstP[1,2]  7.7896786757546245e-03
    x[1,3]    findWorstP[1,3]  7.7896786757546245e-03
    x[1,3]    findWorstP[1,4]  7.7896786757546245e-03
    x[1,3]    findWorstP[1,5]  7.7896786757546245e-03
    x[1,3]    findWorstP[2,1]  -1.5792651772028425e-02
    x[1,3]    findWorstP[3,1]  -2.6085109771961029e-01
    x[1,3]    findWorstP[4,1]  -1.6526533964256385e-01
    x[1,3]    findWorstP[5,1]  -5.2172415772255065e-02
    x[1,4]    allocateEach[4]  1
    x[1,4]    findWorstP[1,2]  6.3291139240506319e-02
    x[1,4]    findWorstP[1,3]  6.3291139240506319e-02
    x[1,4]    findWorstP[1,4]  6.3291139240506319e-02
    x[1,4]    findWorstP[1,5]  6.3291139240506319e-02
    x[1,4]    findWorstP[2,1]  -1.9571275953365228e-01
    x[1,4]    findWorstP[3,1]  -3.5360641376197939e-02
    x[1,4]    findWorstP[4,1]  -3.0229556919948379e-02
    x[1,4]    findWorstP[5,1]  -2.6840957355220113e-01
    x[1,5]    allocateEach[5]  1
    x[1,5]    findWorstP[1,2]  1.0100026555722758e-01
    x[1,5]    findWorstP[1,3]  1.0100026555722758e-01
    x[1,5]    findWorstP[1,4]  1.0100026555722758e-01
    x[1,5]    findWorstP[1,5]  1.0100026555722758e-01
    x[1,5]    findWorstP[2,1]  -1.2517998978122533e-01
    x[1,5]    findWorstP[3,1]  -1.3408903873211395e-01
    x[1,5]    findWorstP[4,1]  -1.7488561260803256e-01
    x[1,5]    findWorstP[5,1]  -1.5103598691384951e-01
    x[1,6]    allocateEach[6]  1
    x[1,6]    findWorstP[1,2]  6.4205836357735080e-02
    x[1,6]    findWorstP[1,3]  6.4205836357735080e-02
    x[1,6]    findWorstP[1,4]  6.4205836357735080e-02
    x[1,6]    findWorstP[1,5]  6.4205836357735080e-02
    x[1,6]    findWorstP[2,1]  -1.6935296576710482e-01
    x[1,6]    findWorstP[3,1]  -2.6419602325519659e-01
    x[1,6]    findWorstP[4,1]  -1.0152125454616559e-01
    x[1,6]    findWorstP[5,1]  -1.3737588245422719e-01
    x[1,7]    allocateEach[7]  1
    x[1,7]    findWorstP[1,2]  1.7792334248030447e-01
    x[1,7]    findWorstP[1,3]  1.7792334248030447e-01
    x[1,7]    findWorstP[1,4]  1.7792334248030447e-01
    x[1,7]    findWorstP[1,5]  1.7792334248030447e-01
    x[1,7]    findWorstP[2,1]  -2.7683589576849826e-02
    x[1,7]    findWorstP[3,1]  -2.3467572805224459e-02
    x[1,7]    findWorstP[4,1]  -1.0850181846623128e-01
    x[1,7]    findWorstP[5,1]  -1.6182632152901338e-01
    x[2,1]    allocateEach[1]  1
    x[2,1]    findWorstP[1,2]  -2.0825587914195506e-01
    x[2,1]    findWorstP[2,1]  1.8707325003483671e-01
    x[2,1]    findWorstP[2,3]  1.8707325003483671e-01
    x[2,1]    findWorstP[2,4]  1.8707325003483671e-01
    x[2,1]    findWorstP[2,5]  1.8707325003483671e-01
    x[2,1]    findWorstP[3,2]  -4.8289044041519555e-02
    x[2,1]    findWorstP[4,2]  -1.9553400336318488e-01
    x[2,1]    findWorstP[5,2]  -1.4027434999713023e-01
    x[2,2]    allocateEach[2]  1
    x[2,2]    findWorstP[1,2]  -2.8901478268566877e-01
    x[2,2]    findWorstP[2,1]  2.0953132983417713e-01
    x[2,2]    findWorstP[2,3]  2.0953132983417713e-01
    x[2,2]    findWorstP[2,4]  2.0953132983417713e-01
    x[2,2]    findWorstP[2,5]  2.0953132983417713e-01
    x[2,2]    findWorstP[3,2]  -1.5410549788951128e-01
    x[2,2]    findWorstP[4,2]  -1.6540221344491809e-01
    x[2,2]    findWorstP[5,2]  -2.8123744475693048e-03
    x[2,3]    allocateEach[3]  1
    x[2,3]    findWorstP[1,2]  -7.7896786757546245e-03
    x[2,3]    findWorstP[2,1]  1.5792651772028425e-02
    x[2,3]    findWorstP[2,3]  1.5792651772028425e-02
    x[2,3]    findWorstP[2,4]  1.5792651772028425e-02
    x[2,3]    findWorstP[2,5]  1.5792651772028425e-02
    x[2,3]    findWorstP[3,2]  -2.6085109771961029e-01
    x[2,3]    findWorstP[4,2]  -1.6526533964256385e-01
    x[2,3]    findWorstP[5,2]  -5.2172415772255065e-02
    x[2,4]    allocateEach[4]  1
    x[2,4]    findWorstP[1,2]  -6.3291139240506319e-02
    x[2,4]    findWorstP[2,1]  1.9571275953365228e-01
    x[2,4]    findWorstP[2,3]  1.9571275953365228e-01
    x[2,4]    findWorstP[2,4]  1.9571275953365228e-01
    x[2,4]    findWorstP[2,5]  1.9571275953365228e-01
    x[2,4]    findWorstP[3,2]  -3.5360641376197939e-02
    x[2,4]    findWorstP[4,2]  -3.0229556919948379e-02
    x[2,4]    findWorstP[5,2]  -2.6840957355220113e-01
    x[2,5]    allocateEach[5]  1
    x[2,5]    findWorstP[1,2]  -1.0100026555722758e-01
    x[2,5]    findWorstP[2,1]  1.2517998978122533e-01
    x[2,5]    findWorstP[2,3]  1.2517998978122533e-01
    x[2,5]    findWorstP[2,4]  1.2517998978122533e-01
    x[2,5]    findWorstP[2,5]  1.2517998978122533e-01
    x[2,5]    findWorstP[3,2]  -1.3408903873211395e-01
    x[2,5]    findWorstP[4,2]  -1.7488561260803256e-01
    x[2,5]    findWorstP[5,2]  -1.5103598691384951e-01
    x[2,6]    allocateEach[6]  1
    x[2,6]    findWorstP[1,2]  -6.4205836357735080e-02
    x[2,6]    findWorstP[2,1]  1.6935296576710482e-01
    x[2,6]    findWorstP[2,3]  1.6935296576710482e-01
    x[2,6]    findWorstP[2,4]  1.6935296576710482e-01
    x[2,6]    findWorstP[2,5]  1.6935296576710482e-01
    x[2,6]    findWorstP[3,2]  -2.6419602325519659e-01
    x[2,6]    findWorstP[4,2]  -1.0152125454616559e-01
    x[2,6]    findWorstP[5,2]  -1.3737588245422719e-01
    x[2,7]    allocateEach[7]  1
    x[2,7]    findWorstP[1,2]  -1.7792334248030447e-01
    x[2,7]    findWorstP[2,1]  2.7683589576849826e-02
    x[2,7]    findWorstP[2,3]  2.7683589576849826e-02
    x[2,7]    findWorstP[2,4]  2.7683589576849826e-02
    x[2,7]    findWorstP[2,5]  2.7683589576849826e-02
    x[2,7]    findWorstP[3,2]  -2.3467572805224459e-02
    x[2,7]    findWorstP[4,2]  -1.0850181846623128e-01
    x[2,7]    findWorstP[5,2]  -1.6182632152901338e-01
    x[3,1]    allocateEach[1]  1
    x[3,1]    findWorstP[1,3]  -2.0825587914195506e-01
    x[3,1]    findWorstP[2,3]  -1.8707325003483671e-01
    x[3,1]    findWorstP[3,1]  4.8289044041519555e-02
    x[3,1]    findWorstP[3,2]  4.8289044041519555e-02
    x[3,1]    findWorstP[3,4]  4.8289044041519555e-02
    x[3,1]    findWorstP[3,5]  4.8289044041519555e-02
    x[3,1]    findWorstP[4,3]  -1.9553400336318488e-01
    x[3,1]    findWorstP[5,3]  -1.4027434999713023e-01
    x[3,2]    allocateEach[2]  1
    x[3,2]    findWorstP[1,3]  -2.8901478268566877e-01
    x[3,2]    findWorstP[2,3]  -2.0953132983417713e-01
    x[3,2]    findWorstP[3,1]  1.5410549788951128e-01
    x[3,2]    findWorstP[3,2]  1.5410549788951128e-01
    x[3,2]    findWorstP[3,4]  1.5410549788951128e-01
    x[3,2]    findWorstP[3,5]  1.5410549788951128e-01
    x[3,2]    findWorstP[4,3]  -1.6540221344491809e-01
    x[3,2]    findWorstP[5,3]  -2.8123744475693048e-03
    x[3,3]    allocateEach[3]  1
    x[3,3]    findWorstP[1,3]  -7.7896786757546245e-03
    x[3,3]    findWorstP[2,3]  -1.5792651772028425e-02
    x[3,3]    findWorstP[3,1]  2.6085109771961029e-01
    x[3,3]    findWorstP[3,2]  2.6085109771961029e-01
    x[3,3]    findWorstP[3,4]  2.6085109771961029e-01
    x[3,3]    findWorstP[3,5]  2.6085109771961029e-01
    x[3,3]    findWorstP[4,3]  -1.6526533964256385e-01
    x[3,3]    findWorstP[5,3]  -5.2172415772255065e-02
    x[3,4]    allocateEach[4]  1
    x[3,4]    findWorstP[1,3]  -6.3291139240506319e-02
    x[3,4]    findWorstP[2,3]  -1.9571275953365228e-01
    x[3,4]    findWorstP[3,1]  3.5360641376197939e-02
    x[3,4]    findWorstP[3,2]  3.5360641376197939e-02
    x[3,4]    findWorstP[3,4]  3.5360641376197939e-02
    x[3,4]    findWorstP[3,5]  3.5360641376197939e-02
    x[3,4]    findWorstP[4,3]  -3.0229556919948379e-02
    x[3,4]    findWorstP[5,3]  -2.6840957355220113e-01
    x[3,5]    allocateEach[5]  1
    x[3,5]    findWorstP[1,3]  -1.0100026555722758e-01
    x[3,5]    findWorstP[2,3]  -1.2517998978122533e-01
    x[3,5]    findWorstP[3,1]  1.3408903873211395e-01
    x[3,5]    findWorstP[3,2]  1.3408903873211395e-01
    x[3,5]    findWorstP[3,4]  1.3408903873211395e-01
    x[3,5]    findWorstP[3,5]  1.3408903873211395e-01
    x[3,5]    findWorstP[4,3]  -1.7488561260803256e-01
    x[3,5]    findWorstP[5,3]  -1.5103598691384951e-01
    x[3,6]    allocateEach[6]  1
    x[3,6]    findWorstP[1,3]  -6.4205836357735080e-02
    x[3,6]    findWorstP[2,3]  -1.6935296576710482e-01
    x[3,6]    findWorstP[3,1]  2.6419602325519659e-01
    x[3,6]    findWorstP[3,2]  2.6419602325519659e-01
    x[3,6]    findWorstP[3,4]  2.6419602325519659e-01
    x[3,6]    findWorstP[3,5]  2.6419602325519659e-01
    x[3,6]    findWorstP[4,3]  -1.0152125454616559e-01
    x[3,6]    findWorstP[5,3]  -1.3737588245422719e-01
    x[3,7]    allocateEach[7]  1
    x[3,7]    findWorstP[1,3]  -1.7792334248030447e-01
    x[3,7]    findWorstP[2,3]  -2.7683589576849826e-02
    x[3,7]    findWorstP[3,1]  2.3467572805224459e-02
    x[3,7]    findWorstP[3,2]  2.3467572805224459e-02
    x[3,7]    findWorstP[3,4]  2.3467572805224459e-02
    x[3,7]    findWorstP[3,5]  2.3467572805224459e-02
    x[3,7]    findWorstP[4,3]  -1.0850181846623128e-01
    x[3,7]    findWorstP[5,3]  -1.6182632152901338e-01
    x[4,1]    allocateEach[1]  1
    x[4,1]    findWorstP[1,4]  -2.0825587914195506e-01
    x[4,1]    findWorstP[2,4]  -1.8707325003483671e-01
    x[4,1]    findWorstP[3,4]  -4.8289044041519555e-02
    x[4,1]    findWorstP[4,1]  1.9553400336318488e-01
    x[4,1]    findWorstP[4,2]  1.9553400336318488e-01
    x[4,1]    findWorstP[4,3]  1.9553400336318488e-01
    x[4,1]    findWorstP[4,5]  1.9553400336318488e-01
    x[4,1]    findWorstP[5,4]  -1.4027434999713023e-01
    x[4,2]    allocateEach[2]  1
    x[4,2]    findWorstP[1,4]  -2.8901478268566877e-01
    x[4,2]    findWorstP[2,4]  -2.0953132983417713e-01
    x[4,2]    findWorstP[3,4]  -1.5410549788951128e-01
    x[4,2]    findWorstP[4,1]  1.6540221344491809e-01
    x[4,2]    findWorstP[4,2]  1.6540221344491809e-01
    x[4,2]    findWorstP[4,3]  1.6540221344491809e-01
    x[4,2]    findWorstP[4,5]  1.6540221344491809e-01
    x[4,2]    findWorstP[5,4]  -2.8123744475693048e-03
    x[4,3]    allocateEach[3]  1
    x[4,3]    findWorstP[1,4]  -7.7896786757546245e-03
    x[4,3]    findWorstP[2,4]  -1.5792651772028425e-02
    x[4,3]    findWorstP[3,4]  -2.6085109771961029e-01
    x[4,3]    findWorstP[4,1]  1.6526533964256385e-01
    x[4,3]    findWorstP[4,2]  1.6526533964256385e-01
    x[4,3]    findWorstP[4,3]  1.6526533964256385e-01
    x[4,3]    findWorstP[4,5]  1.6526533964256385e-01
    x[4,3]    findWorstP[5,4]  -5.2172415772255065e-02
    x[4,4]    allocateEach[4]  1
    x[4,4]    findWorstP[1,4]  -6.3291139240506319e-02
    x[4,4]    findWorstP[2,4]  -1.9571275953365228e-01
    x[4,4]    findWorstP[3,4]  -3.5360641376197939e-02
    x[4,4]    findWorstP[4,1]  3.0229556919948379e-02
    x[4,4]    findWorstP[4,2]  3.0229556919948379e-02
    x[4,4]    findWorstP[4,3]  3.0229556919948379e-02
    x[4,4]    findWorstP[4,5]  3.0229556919948379e-02
    x[4,4]    findWorstP[5,4]  -2.6840957355220113e-01
    x[4,5]    allocateEach[5]  1
    x[4,5]    findWorstP[1,4]  -1.0100026555722758e-01
    x[4,5]    findWorstP[2,4]  -1.2517998978122533e-01
    x[4,5]    findWorstP[3,4]  -1.3408903873211395e-01
    x[4,5]    findWorstP[4,1]  1.7488561260803256e-01
    x[4,5]    findWorstP[4,2]  1.7488561260803256e-01
    x[4,5]    findWorstP[4,3]  1.7488561260803256e-01
    x[4,5]    findWorstP[4,5]  1.7488561260803256e-01
    x[4,5]    findWorstP[5,4]  -1.5103598691384951e-01
    x[4,6]    allocateEach[6]  1
    x[4,6]    findWorstP[1,4]  -6.4205836357735080e-02
    x[4,6]    findWorstP[2,4]  -1.6935296576710482e-01
    x[4,6]    findWorstP[3,4]  -2.6419602325519659e-01
    x[4,6]    findWorstP[4,1]  1.0152125454616559e-01
    x[4,6]    findWorstP[4,2]  1.0152125454616559e-01
    x[4,6]    findWorstP[4,3]  1.0152125454616559e-01
    x[4,6]    findWorstP[4,5]  1.0152125454616559e-01
    x[4,6]    findWorstP[5,4]  -1.3737588245422719e-01
    x[4,7]    allocateEach[7]  1
    x[4,7]    findWorstP[1,4]  -1.7792334248030447e-01
    x[4,7]    findWorstP[2,4]  -2.7683589576849826e-02
    x[4,7]    findWorstP[3,4]  -2.3467572805224459e-02
    x[4,7]    findWorstP[4,1]  1.0850181846623128e-01
    x[4,7]    findWorstP[4,2]  1.0850181846623128e-01
    x[4,7]    findWorstP[4,3]  1.0850181846623128e-01
    x[4,7]    findWorstP[4,5]  1.0850181846623128e-01
    x[4,7]    findWorstP[5,4]  -1.6182632152901338e-01
    x[5,1]    allocateEach[1]  1
    x[5,1]    findWorstP[1,5]  -2.0825587914195506e-01
    x[5,1]    findWorstP[2,5]  -1.8707325003483671e-01
    x[5,1]    findWorstP[3,5]  -4.8289044041519555e-02
    x[5,1]    findWorstP[4,5]  -1.9553400336318488e-01
    x[5,1]    findWorstP[5,1]  1.4027434999713023e-01
    x[5,1]    findWorstP[5,2]  1.4027434999713023e-01
    x[5,1]    findWorstP[5,3]  1.4027434999713023e-01
    x[5,1]    findWorstP[5,4]  1.4027434999713023e-01
    x[5,2]    allocateEach[2]  1
    x[5,2]    findWorstP[1,5]  -2.8901478268566877e-01
    x[5,2]    findWorstP[2,5]  -2.0953132983417713e-01
    x[5,2]    findWorstP[3,5]  -1.5410549788951128e-01
    x[5,2]    findWorstP[4,5]  -1.6540221344491809e-01
    x[5,2]    findWorstP[5,1]  2.8123744475693048e-03
    x[5,2]    findWorstP[5,2]  2.8123744475693048e-03
    x[5,2]    findWorstP[5,3]  2.8123744475693048e-03
    x[5,2]    findWorstP[5,4]  2.8123744475693048e-03
    x[5,3]    allocateEach[3]  1
    x[5,3]    findWorstP[1,5]  -7.7896786757546245e-03
    x[5,3]    findWorstP[2,5]  -1.5792651772028425e-02
    x[5,3]    findWorstP[3,5]  -2.6085109771961029e-01
    x[5,3]    findWorstP[4,5]  -1.6526533964256385e-01
    x[5,3]    findWorstP[5,1]  5.2172415772255065e-02
    x[5,3]    findWorstP[5,2]  5.2172415772255065e-02
    x[5,3]    findWorstP[5,3]  5.2172415772255065e-02
    x[5,3]    findWorstP[5,4]  5.2172415772255065e-02
    x[5,4]    allocateEach[4]  1
    x[5,4]    findWorstP[1,5]  -6.3291139240506319e-02
    x[5,4]    findWorstP[2,5]  -1.9571275953365228e-01
    x[5,4]    findWorstP[3,5]  -3.5360641376197939e-02
    x[5,4]    findWorstP[4,5]  -3.0229556919948379e-02
    x[5,4]    findWorstP[5,1]  2.6840957355220113e-01
    x[5,4]    findWorstP[5,2]  2.6840957355220113e-01
    x[5,4]    findWorstP[5,3]  2.6840957355220113e-01
    x[5,4]    findWorstP[5,4]  2.6840957355220113e-01
    x[5,5]    allocateEach[5]  1
    x[5,5]    findWorstP[1,5]  -1.0100026555722758e-01
    x[5,5]    findWorstP[2,5]  -1.2517998978122533e-01
    x[5,5]    findWorstP[3,5]  -1.3408903873211395e-01
    x[5,5]    findWorstP[4,5]  -1.7488561260803256e-01
    x[5,5]    findWorstP[5,1]  1.5103598691384951e-01
    x[5,5]    findWorstP[5,2]  1.5103598691384951e-01
    x[5,5]    findWorstP[5,3]  1.5103598691384951e-01
    x[5,5]    findWorstP[5,4]  1.5103598691384951e-01
    x[5,6]    allocateEach[6]  1
    x[5,6]    findWorstP[1,5]  -6.4205836357735080e-02
    x[5,6]    findWorstP[2,5]  -1.6935296576710482e-01
    x[5,6]    findWorstP[3,5]  -2.6419602325519659e-01
    x[5,6]    findWorstP[4,5]  -1.0152125454616559e-01
    x[5,6]    findWorstP[5,1]  1.3737588245422719e-01
    x[5,6]    findWorstP[5,2]  1.3737588245422719e-01
    x[5,6]    findWorstP[5,3]  1.3737588245422719e-01
    x[5,6]    findWorstP[5,4]  1.3737588245422719e-01
    x[5,7]    allocateEach[7]  1
    x[5,7]    findWorstP[1,5]  -1.7792334248030447e-01
    x[5,7]    findWorstP[2,5]  -2.7683589576849826e-02
    x[5,7]    findWorstP[3,5]  -2.3467572805224459e-02
    x[5,7]    findWorstP[4,5]  -1.0850181846623128e-01
    x[5,7]    findWorstP[5,1]  1.6182632152901338e-01
    x[5,7]    findWorstP[5,2]  1.6182632152901338e-01
    x[5,7]    findWorstP[5,3]  1.6182632152901338e-01
    x[5,7]    findWorstP[5,4]  1.6182632152901338e-01
    MARKER    'MARKER'                 'INTEND'
RHS
    RHS1      allocateEach[1]  1
    RHS1      allocateEach[2]  1
    RHS1      allocateEach[3]  1
    RHS1      allocateEach[4]  1
    RHS1      allocateEach[5]  1
    RHS1      allocateEach[6]  1
    RHS1      allocateEach[7]  1
    RHS1      allocateAllCash  1
BOUNDS
 UP BND1      z         1
 MI BND1      cashProportion[1]
 UP BND1      cashProportion[1]  1
 MI BND1      cashProportion[2]
 UP BND1      cashProportion[2]  1
 MI BND1      cashProportion[3]
 UP BND1      cashProportion[3]  1
 MI BND1      cashProportion[4]
 UP BND1      cashProportion[4]  1
 MI BND1      cashProportion[5]
 UP BND1      cashProportion[5]  1
 BV BND1      x[1,1]  
 BV BND1      x[1,2]  
 BV BND1      x[1,3]  
 BV BND1      x[1,4]  
 BV BND1      x[1,5]  
 BV BND1      x[1,6]  
 BV BND1      x[1,7]  
 BV BND1      x[2,1]  
 BV BND1      x[2,2]  
 BV BND1      x[2,3]  
 BV BND1      x[2,4]  
 BV BND1      x[2,5]  
 BV BND1      x[2,6]  
 BV BND1      x[2,7]  
 BV BND1      x[3,1]  
 BV BND1      x[3,2]  
 BV BND1      x[3,3]  
 BV BND1      x[3,4]  
 BV BND1      x[3,5]  
 BV BND1      x[3,6]  
 BV BND1      x[3,7]  
 BV BND1      x[4,1]  
 BV BND1      x[4,2]  
 BV BND1      x[4,3]  
 BV BND1      x[4,4]  
 BV BND1      x[4,5]  
 BV BND1      x[4,6]  
 BV BND1      x[4,7]  
 BV BND1      x[5,1]  
 BV BND1      x[5,2]  
 BV BND1      x[5,3]  
 BV BND1      x[5,4]  
 BV BND1      x[5,5]  
 BV BND1      x[5,6]  
 BV BND1      x[5,7]  
ENDATA
